c Result of efficient AIG-to-CNF conversion using package CNF
p cnf 212 631
-2 3 83 0
-2 -3 -83 0
2 -3 83 0
2 3 -83 0
-3 4 71 0
-3 -4 -71 0
3 -4 71 0
3 4 -71 0
-4 5 53 0
-4 -5 -53 0
4 -5 53 0
4 5 -53 0
-5 6 43 0
-5 -6 -43 0
5 -6 43 0
5 6 -43 0
-6 7 25 0
-6 -7 -25 0
6 -7 25 0
6 7 -25 0
-7 -8 -20 0
-7 8 20 0
7 8 -20 0
7 -8 20 0
-8 -9 -19 0
-8 9 19 0
8 9 -19 0
8 -9 19 0
-9 10 15 0
-9 -10 -15 0
9 -10 15 0
9 10 -15 0
-10 -11 -14 0
-10 11 14 0
10 11 -14 0
10 -11 14 0
-11 -12 -13 0
-11 12 13 0
11 12 -13 0
11 -12 13 0
12 -172 -185 0
-12 172 0
-12 185 0
13 -182 -183 0
-13 182 0
-13 183 0
14 -181 -209 0
-14 181 0
-14 209 0
-15 16 18 0
-15 17 18 0
-15 16 17 0
15 -16 -17 0
15 -17 -18 0
15 -16 -18 0
16 -172 -183 0
-16 172 0
-16 183 0
17 -182 -209 0
-17 182 0
-17 209 0
18 -167 -181 0
-18 167 0
-18 181 0
19 -167 -176 0
-19 167 0
-19 176 0
20 -21 -23 0
-20 21 0
-20 23 0
-21 18 22 0
-21 -18 -22 0
21 -18 22 0
21 18 -22 0
-22 -16 -17 0
-22 16 17 0
22 16 -17 0
22 -16 17 0
23 -167 -182 -24 0
-23 167 0
-23 182 0
-23 24 0
24 -172 -209 0
-24 172 0
-24 209 0
-25 -26 -38 0
-25 26 38 0
25 26 -38 0
25 -26 38 0
-26 -27 -37 0
-26 27 37 0
26 27 -37 0
26 -27 37 0
-27 28 33 0
-27 -28 -33 0
27 -28 33 0
27 28 -33 0
-28 -29 -32 0
-28 29 32 0
28 29 -32 0
28 -29 32 0
-29 -30 -31 0
-29 30 31 0
29 30 -31 0
29 -30 31 0
30 -168 -191 0
-30 168 0
-30 191 0
31 -171 -192 0
-31 171 0
-31 192 0
32 -193 -194 0
-32 193 0
-32 194 0
-33 34 36 0
-33 35 36 0
-33 34 35 0
33 -34 -35 0
33 -35 -36 0
33 -34 -36 0
34 -191 -192 0
-34 191 0
-34 192 0
35 -171 -193 0
-35 171 0
-35 193 0
36 -194 -195 0
-36 194 0
-36 195 0
37 -195 -196 0
-37 195 0
-37 196 0
38 -39 -41 0
-38 39 0
-38 41 0
-39 36 40 0
-39 -36 -40 0
39 -36 40 0
39 36 -40 0
-40 -34 -35 0
-40 34 35 0
40 34 -35 0
40 -34 35 0
41 -171 -195 -42 0
-41 171 0
-41 195 0
-41 42 0
42 -191 -193 0
-42 191 0
-42 193 0
-43 44 45 0
-43 45 46 0
-43 44 46 0
43 -44 -46 0
43 -45 -46 0
43 -44 -45 0
-44 -21 -23 0
-44 21 23 0
44 21 -23 0
44 -21 23 0
-45 -39 -41 0
-45 39 41 0
45 39 -41 0
45 -39 41 0
-46 47 49 0
-46 49 51 0
-46 47 51 0
-46 47 52 0
-46 49 52 0
46 -47 -49 0
46 -47 -51 -52 0
46 -49 -51 -52 0
-47 -24 -48 0
-47 24 48 0
47 24 -48 0
47 -24 48 0
48 -167 -182 0
-48 167 0
-48 182 0
-49 -42 -50 0
-49 42 50 0
49 42 -50 0
49 -42 50 0
50 -171 -195 0
-50 171 0
-50 195 0
51 -167 -172 0
-51 167 0
-51 172 0
52 -191 -195 0
-52 191 0
-52 195 0
-53 -54 -66 0
-53 54 66 0
53 54 -66 0
53 -54 66 0
-54 -55 -65 0
-54 55 65 0
54 55 -65 0
54 -55 65 0
-55 56 61 0
-55 -56 -61 0
55 -56 61 0
55 56 -61 0
-56 -57 -60 0
-56 57 60 0
56 57 -60 0
56 -57 60 0
-57 -58 -59 0
-57 58 59 0
57 58 -59 0
57 -58 59 0
58 -166 -187 0
-58 166 0
-58 187 0
59 -164 -165 0
-59 164 0
-59 165 0
60 -162 -163 0
-60 162 0
-60 163 0
-61 62 64 0
-61 63 64 0
-61 62 63 0
61 -62 -63 0
61 -63 -64 0
61 -62 -64 0
62 -165 -166 0
-62 165 0
-62 166 0
63 -163 -164 0
-63 163 0
-63 164 0
64 -161 -162 0
-64 161 0
-64 162 0
65 -160 -161 0
-65 160 0
-65 161 0
66 -67 -69 0
-66 67 0
-66 69 0
-67 64 68 0
-67 -64 -68 0
67 -64 68 0
67 64 -68 0
-68 -62 -63 0
-68 62 63 0
68 62 -63 0
68 -62 63 0
69 -161 -164 -70 0
-69 161 0
-69 164 0
-69 70 0
70 -163 -166 0
-70 163 0
-70 166 0
-71 72 73 0
-71 73 75 0
-71 72 75 0
71 -72 -75 0
71 -73 -75 0
71 -72 -73 0
-72 -67 -69 0
-72 67 69 0
72 67 -69 0
72 -67 69 0
-73 74 46 0
-73 -74 -46 0
73 -74 46 0
73 74 -46 0
-74 44 45 0
-74 -44 -45 0
74 -44 45 0
74 44 -45 0
-75 76 78 0
-75 76 82 0
-75 78 82 0
-75 78 81 0
-75 76 81 0
75 -76 -78 0
75 -78 -81 -82 0
75 -76 -81 -82 0
-76 -70 -77 0
-76 70 77 0
76 70 -77 0
76 -70 77 0
77 -161 -164 0
-77 161 0
-77 164 0
-78 -79 -80 0
-78 79 80 0
78 79 -80 0
78 -79 80 0
-79 47 49 0
-79 -47 -49 0
79 -47 49 0
79 47 -49 0
80 -51 -52 0
-80 51 0
-80 52 0
-81 -51 -52 0
-81 51 52 0
81 51 -52 0
81 -51 52 0
82 -161 -166 0
-82 161 0
-82 166 0
-83 84 136 0
-83 -84 -136 0
83 -84 136 0
83 84 -136 0
-84 85 104 0
-84 -85 -104 0
84 -85 104 0
84 85 -104 0
-85 86 92 0
-85 92 98 0
-85 86 98 0
85 -86 -98 0
85 -92 -98 0
85 -86 -92 0
-86 -87 -91 0
-86 87 91 0
86 87 -91 0
86 -87 91 0
-87 -88 -90 0
-87 88 90 0
87 88 -90 0
87 -88 90 0
-88 182 89 0
-88 -182 -89 0
88 -182 89 0
88 182 -89 0
-89 -172 183 0
-89 172 182 0
-89 172 209 0
89 -172 -183 0
89 172 -182 -209 0
90 -167 181 -182 0
90 -167 -181 182 0
-90 167 0
-90 -181 -182 0
-90 181 182 0
91 167 -182 24 0
-91 -167 0
-91 182 0
-91 -24 0
-92 -93 -97 0
-92 93 97 0
92 93 -97 0
92 -93 97 0
-93 -94 -96 0
-93 94 96 0
93 94 -96 0
93 -94 96 0
-94 171 95 0
-94 -171 -95 0
94 -171 95 0
94 171 -95 0
-95 191 193 0
-95 -191 192 0
-95 171 191 0
95 -191 -192 0
95 -171 191 -193 0
96 171 -194 -195 0
96 -171 194 -195 0
-96 195 0
-96 171 194 0
-96 -171 -194 0
97 -171 195 42 0
-97 171 0
-97 -42 0
-97 -195 0
-98 -99 -103 0
-98 99 103 0
98 99 -103 0
98 -99 103 0
-99 -100 -102 0
-99 100 102 0
99 100 -102 0
99 -100 102 0
-100 164 101 0
-100 -164 -101 0
100 -164 101 0
100 164 -101 0
-101 164 166 0
-101 165 -166 0
-101 163 166 0
101 -165 -166 0
101 -163 -164 166 0
102 -161 162 -164 0
102 -161 -162 164 0
-102 161 0
-102 -162 -164 0
-102 162 164 0
103 161 -164 70 0
-103 -161 0
-103 164 0
-103 -70 0
-104 105 126 0
-104 -105 -126 0
104 -105 126 0
104 105 -126 0
-105 106 116 0
-105 -106 -116 0
105 -106 116 0
105 106 -116 0
-106 107 115 0
-106 -107 -115 0
106 -107 115 0
106 107 -115 0
-107 -108 -114 0
-107 108 114 0
107 108 -114 0
107 -108 114 0
-108 109 111 0
-108 -109 -111 0
108 -109 111 0
108 109 -111 0
-109 182 110 0
-109 -182 -110 0
109 -182 110 0
109 182 -110 0
-110 -172 185 0
-110 172 183 0
-110 172 182 0
110 -172 -185 0
110 172 -182 -183 0
-111 176 112 0
-111 -176 -112 0
111 -176 112 0
111 176 -112 0
-112 209 113 0
-112 181 182 113 0
-112 -181 -182 113 0
112 -113 0
112 181 -182 -209 0
112 -181 182 -209 0
113 -167 176 -181 -182 0
113 -167 -176 181 182 0
-113 176 182 0
-113 -176 -181 0
-113 167 0
-113 181 -182 0
114 -176 90 0
-114 176 0
-114 -90 0
-115 90 91 0
-115 88 90 0
-115 88 91 0
115 -88 -90 0
115 -90 -91 0
115 -88 -91 0
-116 117 125 0
-116 -117 -125 0
116 -117 125 0
116 117 -125 0
-117 -118 -124 0
-117 118 124 0
117 118 -124 0
117 -118 124 0
-118 119 121 0
-118 -119 -121 0
118 -119 121 0
118 119 -121 0
-119 171 120 0
-119 -171 -120 0
119 -171 120 0
119 171 -120 0
-120 191 192 0
-120 168 -191 0
-120 171 191 0
120 -168 -191 0
120 -171 191 -192 0
-121 196 122 0
-121 -196 -122 0
121 -196 122 0
121 196 -122 0
-122 193 123 0
-122 -171 -194 123 0
-122 171 194 123 0
122 -123 0
122 171 -193 -194 0
122 -171 -193 194 0
123 171 194 -195 -196 0
123 -171 -194 -195 196 0
-123 194 196 0
-123 171 -194 0
-123 195 0
-123 -171 -196 0
124 -196 96 0
-124 196 0
-124 -96 0
-125 96 97 0
-125 94 96 0
-125 94 97 0
125 -94 -96 0
125 -96 -97 0
125 -94 -97 0
-126 127 135 0
-126 -127 -135 0
126 -127 135 0
126 127 -135 0
-127 -128 -134 0
-127 128 134 0
127 128 -134 0
127 -128 134 0
-128 129 131 0
-128 -129 -131 0
128 -129 131 0
128 129 -131 0
-129 164 130 0
-129 -164 -130 0
129 -164 130 0
129 164 -130 0
-130 164 166 0
-130 -166 187 0
-130 165 166 0
130 -166 -187 0
130 -164 -165 166 0
-131 160 132 0
-131 -160 -132 0
131 -160 132 0
131 160 -132 0
-132 163 133 0
-132 -162 -164 133 0
-132 162 164 133 0
132 -133 0
132 162 -163 -164 0
132 -162 -163 164 0
133 160 -161 -162 -164 0
133 -160 -161 162 164 0
-133 162 -164 0
-133 -160 -162 0
-133 161 0
-133 160 164 0
134 -160 102 0
-134 160 0
-134 -102 0
-135 102 103 0
-135 100 102 0
-135 100 103 0
135 -100 -102 0
135 -102 -103 0
135 -100 -103 0
-136 137 150 0
-136 150 152 0
-136 137 152 0
136 -150 -152 0
136 -137 -150 0
136 -137 -152 0
-137 138 142 0
-137 142 146 0
-137 138 146 0
137 -138 -146 0
137 -142 -146 0
137 -138 -142 0
-138 -139 -141 0
-138 139 141 0
138 139 -141 0
138 -139 141 0
-139 182 140 0
-139 -182 -140 0
139 -182 140 0
139 182 -140 0
-140 172 182 0
-140 -172 209 0
-140 167 172 0
140 -172 -209 0
140 -167 172 -182 0
141 -182 51 0
-141 182 0
-141 -51 0
-142 -143 -145 0
-142 143 145 0
142 143 -145 0
142 -143 145 0
-143 171 144 0
-143 -171 -144 0
143 -171 144 0
143 171 -144 0
-144 191 195 0
-144 -191 193 0
-144 171 191 0
144 -191 -193 0
144 -171 191 -195 0
145 -171 52 0
-145 171 0
-145 -52 0
-146 -147 -149 0
-146 147 149 0
146 147 -149 0
146 -147 149 0
-147 164 148 0
-147 -164 -148 0
147 -164 148 0
147 164 -148 0
-148 163 -166 0
-148 164 166 0
-148 161 166 0
148 -163 -166 0
148 -161 -164 166 0
149 -164 82 0
-149 164 0
-149 -82 0
-150 98 151 0
-150 -98 -151 0
150 -98 151 0
150 98 -151 0
-151 86 92 0
-151 -86 -92 0
151 -86 92 0
151 86 -92 0
152 -51 -82 -153 0
152 -51 -52 -153 0
152 -52 -82 -153 0
-152 51 82 0
-152 52 82 0
-152 153 0
-152 51 52 0
-153 146 154 0
-153 -146 -154 0
153 -146 154 0
153 146 -154 0
-154 138 142 0
-154 -138 -142 0
154 -138 142 0
154 138 -142 0
-212 0
2 0

